(declare-fun obstacle (Int Int) Bool)

(declare-const total_cost Real)

(declare-const prim_1_1 Int)
(declare-const prim_1_2 Int)
(declare-const prim_1_3 Int)
(declare-const prim_1_4 Int)
(declare-const prim_1_5 Int)

(declare-const x_1_1 Int)
(declare-const x_1_2 Int)
(declare-const x_1_3 Int)
(declare-const x_1_4 Int)
(declare-const x_1_5 Int)
(declare-const x_1_6 Int)

(declare-const y_1_1 Int)
(declare-const y_1_2 Int)
(declare-const y_1_3 Int)
(declare-const y_1_4 Int)
(declare-const y_1_5 Int)
(declare-const y_1_6 Int)

(declare-const vel_i_1_1 Int)
(declare-const vel_i_1_2 Int)
(declare-const vel_i_1_3 Int)
(declare-const vel_i_1_4 Int)
(declare-const vel_i_1_5 Int)
(declare-const vel_i_1_6 Int)

(declare-const vel_f_1_1 Int)
(declare-const vel_f_1_2 Int)
(declare-const vel_f_1_3 Int)
(declare-const vel_f_1_4 Int)
(declare-const vel_f_1_5 Int)

(declare-const x_f_1_1 Int)
(declare-const x_f_1_2 Int)
(declare-const x_f_1_3 Int)
(declare-const x_f_1_4 Int)
(declare-const x_f_1_5 Int)

(declare-const y_f_1_1 Int)
(declare-const y_f_1_2 Int)
(declare-const y_f_1_3 Int)
(declare-const y_f_1_4 Int)
(declare-const y_f_1_5 Int)

(declare-const cost_1_1 Real)
(declare-const cost_1_2 Real)
(declare-const cost_1_3 Real)
(declare-const cost_1_4 Real)
(declare-const cost_1_5 Real)

(assert (= x_1_1 15))
(assert (= y_1_1 10))


(assert (= (obstacle 6 12) true))
(assert (= (obstacle 6 13) true))
(assert (= (obstacle 6 14) true))
(assert (= (obstacle 6 15) true))
(assert (= (obstacle 6 16) true))
(assert (= (obstacle 6 17) true))
(assert (= (obstacle 6 18) true))
(assert (= (obstacle 7 12) true))
(assert (= (obstacle 7 13) true))
(assert (= (obstacle 7 14) true))
(assert (= (obstacle 7 15) true))
(assert (= (obstacle 7 16) true))
(assert (= (obstacle 7 17) true))
(assert (= (obstacle 7 18) true))
(assert (= (obstacle 8 12) true))
(assert (= (obstacle 8 13) true))
(assert (= (obstacle 8 14) true))
(assert (= (obstacle 8 15) true))
(assert (= (obstacle 8 16) true))
(assert (= (obstacle 8 17) true))
(assert (= (obstacle 8 18) true))
(assert (= (obstacle 9 12) true))
(assert (= (obstacle 9 13) true))
(assert (= (obstacle 9 14) true))
(assert (= (obstacle 9 15) true))
(assert (= (obstacle 9 16) true))
(assert (= (obstacle 9 17) true))
(assert (= (obstacle 9 18) true))
(assert (= (obstacle 10 12) true))
(assert (= (obstacle 10 13) true))
(assert (= (obstacle 10 14) true))
(assert (= (obstacle 10 15) true))
(assert (= (obstacle 10 16) true))
(assert (= (obstacle 10 17) true))
(assert (= (obstacle 10 18) true))


(assert (= vel_i_1_1 0))
(assert (= vel_f_1_5 0))

(assert (and (>= prim_1_1 1) (<= prim_1_1 4)))
(assert (and (>= prim_1_2 1) (<= prim_1_2 4)))
(assert (and (>= prim_1_3 1) (<= prim_1_3 4)))
(assert (and (>= prim_1_4 1) (<= prim_1_4 4)))
(assert (and (>= prim_1_5 1) (<= prim_1_5 4)))

(assert (and (>= vel_i_1_2 0) (<= vel_i_1_2 8)))
(assert (and (>= vel_i_1_3 0) (<= vel_i_1_3 8)))
(assert (and (>= vel_i_1_4 0) (<= vel_i_1_4 8)))
(assert (and (>= vel_i_1_5 0) (<= vel_i_1_5 8)))

(assert (and (>= vel_f_1_1 0) (<= vel_f_1_1 8)))
(assert (and (>= vel_f_1_2 0) (<= vel_f_1_2 8)))
(assert (and (>= vel_f_1_3 0) (<= vel_f_1_3 8)))
(assert (and (>= vel_f_1_4 0) (<= vel_f_1_4 8)))

(assert (and (>= x_1_1 0) (<= x_1_1 30)))
(assert (and (>= x_1_2 0) (<= x_1_2 30)))
(assert (and (>= x_1_3 0) (<= x_1_3 30)))
(assert (and (>= x_1_4 0) (<= x_1_4 30)))
(assert (and (>= x_1_5 0) (<= x_1_5 30)))
(assert (and (>= x_1_6 0) (<= x_1_6 30)))

(assert (and (>= y_1_1 0) (<= y_1_1 30)))
(assert (and (>= y_1_2 0) (<= y_1_2 30)))
(assert (and (>= y_1_3 0) (<= y_1_3 30)))
(assert (and (>= y_1_4 0) (<= y_1_4 30)))
(assert (and (>= y_1_5 0) (<= y_1_5 30)))
(assert (and (>= y_1_6 0) (<= y_1_6 30)))

(assert (or (not (= prim_1_1 1))
(and (= vel_i_1_1 0)
     (= vel_f_1_1 0)
     (= x_f_1_1 0)
     (= y_f_1_1 1)
     (= cost_1_1 (/ 29875696041984 100000000000000))
     (= (obstacle (+ x_1_1 0) (+ y_1_1 0)) false)
     (= (obstacle (+ x_1_1 0) (+ y_1_1 1)) false)
)))

(assert (or (not (= prim_1_1 2))
(and (= vel_i_1_1 0)
     (= vel_f_1_1 0)
     (= x_f_1_1 1)
     (= y_f_1_1 0)
     (= cost_1_1 (/ 29875696041984 100000000000000))
     (= (obstacle (+ x_1_1 0) (+ y_1_1 0)) false)
     (= (obstacle (+ x_1_1 1) (+ y_1_1 0)) false)
)))

(assert (or (not (= prim_1_1 3))
(and (= vel_i_1_1 0)
     (= vel_f_1_1 0)
     (= x_f_1_1 -1)
     (= y_f_1_1 0)
     (= cost_1_1 (/ 29875696041984 100000000000000))
     (= (obstacle (+ x_1_1 0) (+ y_1_1 0)) false)
     (= (obstacle (+ x_1_1 -1) (+ y_1_1 0)) false)
)))

(assert (or (not (= prim_1_1 4))
(and (= vel_i_1_1 0)
     (= vel_f_1_1 0)
     (= x_f_1_1 0)
     (= y_f_1_1 0)
     (= cost_1_1 (/ 29875696041984 100000000000000))
     (= (obstacle (+ x_1_1 0) (+ y_1_1 0)) false)
)))

(assert (or (not (= prim_1_2 1))
(and (= vel_i_1_2 0)
     (= vel_f_1_2 0)
     (= x_f_1_2 0)
     (= y_f_1_2 1)
     (= cost_1_2 (/ 29875696041984 100000000000000))
     (= (obstacle (+ x_1_2 0) (+ y_1_2 0)) false)
     (= (obstacle (+ x_1_2 0) (+ y_1_2 1)) false)
)))

(assert (or (not (= prim_1_2 2))
(and (= vel_i_1_2 0)
     (= vel_f_1_2 0)
     (= x_f_1_2 1)
     (= y_f_1_2 0)
     (= cost_1_2 (/ 29875696041984 100000000000000))
     (= (obstacle (+ x_1_2 0) (+ y_1_2 0)) false)
     (= (obstacle (+ x_1_2 1) (+ y_1_2 0)) false)
)))

(assert (or (not (= prim_1_2 3))
(and (= vel_i_1_2 0)
     (= vel_f_1_2 0)
     (= x_f_1_2 -1)
     (= y_f_1_2 0)
     (= cost_1_2 (/ 29875696041984 100000000000000))
     (= (obstacle (+ x_1_2 0) (+ y_1_2 0)) false)
     (= (obstacle (+ x_1_2 -1) (+ y_1_2 0)) false)
)))

(assert (or (not (= prim_1_2 4))
(and (= vel_i_1_2 0)
     (= vel_f_1_2 0)
     (= x_f_1_2 0)
     (= y_f_1_2 0)
     (= cost_1_2 (/ 29875696041984 100000000000000))
     (= (obstacle (+ x_1_2 0) (+ y_1_2 0)) false)
)))

(assert (or (not (= prim_1_3 1))
(and (= vel_i_1_3 0)
     (= vel_f_1_3 0)
     (= x_f_1_3 0)
     (= y_f_1_3 1)
     (= cost_1_3 (/ 29875696041984 100000000000000))
     (= (obstacle (+ x_1_3 0) (+ y_1_3 0)) false)
     (= (obstacle (+ x_1_3 0) (+ y_1_3 1)) false)
)))

(assert (or (not (= prim_1_3 2))
(and (= vel_i_1_3 0)
     (= vel_f_1_3 0)
     (= x_f_1_3 1)
     (= y_f_1_3 0)
     (= cost_1_3 (/ 29875696041984 100000000000000))
     (= (obstacle (+ x_1_3 0) (+ y_1_3 0)) false)
     (= (obstacle (+ x_1_3 1) (+ y_1_3 0)) false)
)))

(assert (or (not (= prim_1_3 3))
(and (= vel_i_1_3 0)
     (= vel_f_1_3 0)
     (= x_f_1_3 -1)
     (= y_f_1_3 0)
     (= cost_1_3 (/ 29875696041984 100000000000000))
     (= (obstacle (+ x_1_3 0) (+ y_1_3 0)) false)
     (= (obstacle (+ x_1_3 -1) (+ y_1_3 0)) false)
)))

(assert (or (not (= prim_1_3 4))
(and (= vel_i_1_3 0)
     (= vel_f_1_3 0)
     (= x_f_1_3 0)
     (= y_f_1_3 0)
     (= cost_1_3 (/ 29875696041984 100000000000000))
     (= (obstacle (+ x_1_3 0) (+ y_1_3 0)) false)
)))

(assert (or (not (= prim_1_4 1))
(and (= vel_i_1_4 0)
     (= vel_f_1_4 0)
     (= x_f_1_4 0)
     (= y_f_1_4 1)
     (= cost_1_4 (/ 29875696041984 100000000000000))
     (= (obstacle (+ x_1_4 0) (+ y_1_4 0)) false)
     (= (obstacle (+ x_1_4 0) (+ y_1_4 1)) false)
)))

(assert (or (not (= prim_1_4 2))
(and (= vel_i_1_4 0)
     (= vel_f_1_4 0)
     (= x_f_1_4 1)
     (= y_f_1_4 0)
     (= cost_1_4 (/ 29875696041984 100000000000000))
     (= (obstacle (+ x_1_4 0) (+ y_1_4 0)) false)
     (= (obstacle (+ x_1_4 1) (+ y_1_4 0)) false)
)))

(assert (or (not (= prim_1_4 3))
(and (= vel_i_1_4 0)
     (= vel_f_1_4 0)
     (= x_f_1_4 -1)
     (= y_f_1_4 0)
     (= cost_1_4 (/ 29875696041984 100000000000000))
     (= (obstacle (+ x_1_4 0) (+ y_1_4 0)) false)
     (= (obstacle (+ x_1_4 -1) (+ y_1_4 0)) false)
)))

(assert (or (not (= prim_1_4 4))
(and (= vel_i_1_4 0)
     (= vel_f_1_4 0)
     (= x_f_1_4 0)
     (= y_f_1_4 0)
     (= cost_1_4 (/ 29875696041984 100000000000000))
     (= (obstacle (+ x_1_4 0) (+ y_1_4 0)) false)
)))

(assert (or (not (= prim_1_5 1))
(and (= vel_i_1_5 0)
     (= vel_f_1_5 0)
     (= x_f_1_5 0)
     (= y_f_1_5 1)
     (= cost_1_5 (/ 29875696041984 100000000000000))
     (= (obstacle (+ x_1_5 0) (+ y_1_5 0)) false)
     (= (obstacle (+ x_1_5 0) (+ y_1_5 1)) false)
)))

(assert (or (not (= prim_1_5 2))
(and (= vel_i_1_5 0)
     (= vel_f_1_5 0)
     (= x_f_1_5 1)
     (= y_f_1_5 0)
     (= cost_1_5 (/ 29875696041984 100000000000000))
     (= (obstacle (+ x_1_5 0) (+ y_1_5 0)) false)
     (= (obstacle (+ x_1_5 1) (+ y_1_5 0)) false)
)))

(assert (or (not (= prim_1_5 3))
(and (= vel_i_1_5 0)
     (= vel_f_1_5 0)
     (= x_f_1_5 -1)
     (= y_f_1_5 0)
     (= cost_1_5 (/ 29875696041984 100000000000000))
     (= (obstacle (+ x_1_5 0) (+ y_1_5 0)) false)
     (= (obstacle (+ x_1_5 -1) (+ y_1_5 0)) false)
)))

(assert (or (not (= prim_1_5 4))
(and (= vel_i_1_5 0)
     (= vel_f_1_5 0)
     (= x_f_1_5 0)
     (= y_f_1_5 0)
     (= cost_1_5 (/ 29875696041984 100000000000000))
     (= (obstacle (+ x_1_5 0) (+ y_1_5 0)) false)
)))


(assert (= x_1_2 (+ x_1_1 x_f_1_1)))
(assert (= y_1_2 (+ y_1_1 y_f_1_1)))
(assert (= x_1_3 (+ x_1_2 x_f_1_2)))
(assert (= y_1_3 (+ y_1_2 y_f_1_2)))
(assert (= x_1_4 (+ x_1_3 x_f_1_3)))
(assert (= y_1_4 (+ y_1_3 y_f_1_3)))
(assert (= x_1_5 (+ x_1_4 x_f_1_4)))
(assert (= y_1_5 (+ y_1_4 y_f_1_4)))
(assert (= x_1_6 (+ x_1_5 x_f_1_5)))
(assert (= y_1_6 (+ y_1_5 y_f_1_5)))

(assert (= vel_i_1_2 vel_f_1_1))
(assert (= vel_i_1_3 vel_f_1_2))
(assert (= vel_i_1_4 vel_f_1_3))
(assert (= vel_i_1_5 vel_f_1_4))


(assert (= total_cost (+ cost_1_1 cost_1_2 cost_1_3 cost_1_4 cost_1_5)))
(assert (<= total_cost (/ 17925420 10000000)))


(assert (and (>= y_1_1 10) (<= y_1_1 21)))
(assert (and (>= x_1_1 15) (<= x_1_1 21)))
(assert (and (>= y_1_2 10) (<= y_1_2 21)))
(assert (and (>= x_1_2 15) (<= x_1_2 21)))
(assert (and (>= y_1_3 10) (<= y_1_3 21)))
(assert (and (>= x_1_3 15) (<= x_1_3 21)))
(assert (and (>= y_1_4 10) (<= y_1_4 21)))
(assert (and (>= x_1_4 15) (<= x_1_4 21)))
(assert (and (>= y_1_5 10) (<= y_1_5 21)))
(assert (and (>= x_1_5 15) (<= x_1_5 21)))
(assert (and (>= y_1_6 10) (<= y_1_6 21)))
(assert (and (>= x_1_6 15) (<= x_1_6 21)))


(assert (= x_1_6 16))
(assert (= y_1_6 14))

(check-sat)
(get-value (prim_1_1))
(get-value (prim_1_2))
(get-value (prim_1_3))
(get-value (prim_1_4))
(get-value (prim_1_5))

(get-value (x_1_1))
(get-value (x_1_2))
(get-value (x_1_3))
(get-value (x_1_4))
(get-value (x_1_5))
(get-value (x_1_6))

(get-value (y_1_1))
(get-value (y_1_2))
(get-value (y_1_3))
(get-value (y_1_4))
(get-value (y_1_5))
(get-value (y_1_6))

(get-value (vel_i_1_1))
(get-value (vel_i_1_2))
(get-value (vel_i_1_3))
(get-value (vel_i_1_4))
(get-value (vel_i_1_5))

(get-value (vel_f_1_1))
(get-value (vel_f_1_2))
(get-value (vel_f_1_3))
(get-value (vel_f_1_4))
(get-value (vel_f_1_5))

(get-value (x_f_1_1))
(get-value (x_f_1_2))
(get-value (x_f_1_3))
(get-value (x_f_1_4))
(get-value (x_f_1_5))

(get-value (y_f_1_1))
(get-value (y_f_1_2))
(get-value (y_f_1_3))
(get-value (y_f_1_4))
(get-value (y_f_1_5))

(get-value (cost_1_1))
(get-value (cost_1_2))
(get-value (cost_1_3))
(get-value (cost_1_4))
(get-value (cost_1_5))
(get-value (total_cost))

